Route 1: 0 85 71 1 9 87 74 47 3 17 69 0
Route 2: 0 98 25 81 14 65 99 44 50 0
Route 3: 0 24 53 84 11 58 90 89 78 52 0
Route 4: 0 95 23 43 7 5 26 4 30 34 79 0
Route 5: 0 77 75 33 16 80 32 57 27 40 36 0
Route 6: 0 31 28 60 62 12 48 2 91 64 0
Route 7: 0 72 45 63 61 42 35 0
Route 8: 0 92 38 19 67 6 10 76 15 0
Route 9: 0 37 39 29 93 8 100 59 82 0
Route 10: 0 41 66 70 18 20 13 49 97 46 0
Route 11: 0 94 22 54 88 51 68 56 55 21 96 86 83 0
Route 12: 0 73 0
